$ This puzzle obtained from: https://teachinglondoncomputing.org/cut-hive-puzzles/

language ESSENCE' 1.0

letting height be 6
letting length be 6
letting numblocks be 7

letting blocks be 
[
    [0,0,0,3,0,0],
    [0,0,3,4,0,0],
    [0,0,3,4,4,0],
    [0,2,2,5,5,0],
    [0,1,0,6,0,5],
    [1,0,0,0,0,7],
]

letting fixed be
[
    [0,0,0,0,0,0],
    [0,0,0,0,0,0],
    [0,0,0,0,0,0],
    [0,0,0,0,0,0],
    [0,0,0,0,0,0],
    [0,0,0,0,0,0],
]